Instance Name : rc102
Authors       : Shobb<shobb@narod.ru>
Date          : 2018-jun-12
Reference     : http://shobb.narod.ru/vrppd.html
Solution
Route 1 : 002 045 001 003 005 008 006 046 004 060 098
Route 2 : 033 028 027 026 031 034 050 093 094 080
Route 3 : 036 044 040 038 041 043 035 037 072
Route 4 : 065 083 019 023 021 018 048 025 077
Route 5 : 014 047 073 078 079 007 055 100 070
Route 6 : 085 063 076 051 022 049 020 024
Route 7 : 082 011 015 016 087 097 075 058
Route 8 : 091 064 099 086 057 074 059 052
Route 9 : 069 088 053 009 010 013 017 012
Route 10 : 092 095 062 029 030 032 089
Route 11 : 042 061 081 090 068 054 096
Route 12 : 039 071 067 084 056 066
